FILENAME:   /home/mcs001/s132664/testsets/IP/miplib2017/ns1208400.mps.gz
SETTINGS:   settings_final_nosym_norestarts
TIMELIMIT:  7200
OUTPUTNAME: final_miplib_symretope_if_extended_generating_set_cpx_v802__settings_final_nosym_norestarts__3__
BINNAME:    bin/sbcs.linux.x86_64.gnu.opt.cpx
BASENAME:   ns1208400.mps.gz
SEED:       3
@01 /home/mcs001/s132664/testsets/IP/miplib2017/ns1208400.mps.gz ===========
@02 ns1208400.mps.gz
@03 1686663566
SCIP version 8.0.2 [precision: 8 byte] [memory: block] [mode: optimized] [LP solver: CPLEX 20.1.0.0] [GitHash: 5f0473c]
Copyright (C) 2002-2022 Konrad-Zuse-Zentrum fuer Informationstechnik Berlin (ZIB)

Symretope propagation methods - (c) Jasper van Doornmalen, Christopher Hojny.
[GitHash: 2fd0484]

reading parameter file <../settings/settings_final_nosym_norestarts.set> ...

Changed settings:
limits/time = 7200
limits/restarts = 0
misc/usesymmetry = 0
randomization/randomseedshift = 3
constraints/orbisack/sepafreq = -1
constraints/symresack/sepafreq = -1
propagating/symmetry/detectsubgroups = FALSE
propagating/symmetry/usesymretopes = FALSE
propagating/symmetry/relabelsymretopes = 0
propagating/symmetry/ofsymcomptiming = 0
constraints/symretope/sepafreq = -1
constraints/symretope/peek = FALSE


solving problem ...

original problem has 2883 variables (2880 bin, 0 int, 0 impl, 3 cont) and 4289 constraints
presolving:
(round 1, fast)       3 del vars, 2307 del conss, 0 add conss, 6 chg bounds, 0 chg sides, 0 chg coeffs, 0 upgd conss, 0 impls, 564 clqs
(round 2, fast)       287 del vars, 2308 del conss, 0 add conss, 290 chg bounds, 1 chg sides, 0 chg coeffs, 0 upgd conss, 0 impls, 564 clqs
(round 3, exhaustive) 287 del vars, 2308 del conss, 0 add conss, 290 chg bounds, 1 chg sides, 0 chg coeffs, 1453 upgd conss, 0 impls, 564 clqs
   (0.2s) probing: 51/2596 (2.0%) - 0 fixings, 0 aggregations, 0 implications, 0 bound changes
   (0.2s) probing aborted: 50/50 successive totally useless probings
presolving (4 rounds: 4 fast, 2 medium, 2 exhaustive):
 287 deleted vars, 2308 deleted constraints, 0 added constraints, 290 tightened bounds, 0 added holes, 1 changed sides, 0 changed coefficients
 0 implications, 564 cliques
presolved problem has 2596 variables (2596 bin, 0 int, 0 impl, 0 cont) and 1981 constraints
    397 constraints of type <knapsack>
    564 constraints of type <setppc>
    528 constraints of type <linear>
    492 constraints of type <logicor>
transformed objective value is always integral (scale: 1)
Presolving Time: 0.19

 time | node  | left  |LP iter|LP it/n|mem/heur|mdpt |vars |cons |rows |cuts |sepa|confs|strbr|  dualbound   | primalbound  |  gap   | compl. 
  0.4s|     1 |     0 |   153 |     - |    60M |   0 |2596 |2258 |1980 |   0 |  0 | 276 |   0 | 0.000000e+00 |      --      |    Inf | unknown
  2.9s|     1 |     0 | 10955 |     - |    61M |   0 |2596 |2268 |1987 |   7 |  1 | 286 |   0 | 0.000000e+00 |      --      |    Inf | unknown
  3.7s|     1 |     0 | 14570 |     - |    62M |   0 |2596 |2278 |1990 |  10 |  2 | 296 |   0 | 0.000000e+00 |      --      |    Inf | unknown
  4.4s|     1 |     0 | 18041 |     - |    62M |   0 |2596 |2279 |2008 |  28 |  3 | 297 |   0 | 0.000000e+00 |      --      |    Inf | unknown
  5.1s|     1 |     0 | 21110 |     - |    62M |   0 |2596 |2289 |2015 |  35 |  4 | 307 |   0 | 0.000000e+00 |      --      |    Inf | unknown
  6.0s|     1 |     0 | 25013 |     - |    63M |   0 |2596 |2299 |2025 |  45 |  5 | 317 |   0 | 0.000000e+00 |      --      |    Inf | unknown
  6.9s|     1 |     0 | 29061 |     - |    64M |   0 |2596 |2304 |2029 |  49 |  6 | 322 |   0 | 0.000000e+00 |      --      |    Inf | unknown
  7.7s|     1 |     0 | 32768 |     - |    64M |   0 |2596 |2314 |2039 |  59 |  7 | 332 |   0 | 2.416048e-15 |      --      |    Inf | unknown
  8.6s|     1 |     0 | 36452 |     - |    64M |   0 |2596 |2323 |2046 |  66 |  8 | 341 |   0 | 2.416048e-15 |      --      |    Inf | unknown
  9.3s|     1 |     0 | 39668 |     - |    64M |   0 |2596 |2326 |2056 |  76 |  9 | 344 |   0 | 2.416048e-15 |      --      |    Inf | unknown
 10.1s|     1 |     0 | 43152 |     - |    65M |   0 |2596 |2336 |2067 |  87 | 10 | 354 |   0 | 2.416048e-15 |      --      |    Inf | unknown
 11.2s|     1 |     0 | 46866 |     - |    65M |   0 |2596 |2343 |2071 |  98 | 11 | 361 |   0 | 2.416048e-15 |      --      |    Inf | unknown
 13.5s|     1 |     2 | 52673 |     - |    65M |   0 |2596 |2356 |2071 |  98 | 11 | 374 |  11 | 9.780418e-15 |      --      |    Inf | unknown
 49.5s|   100 |    99 |200417 |1551.0 |    68M |  34 |2596 |2433 |2034 | 167 |  1 | 451 |  11 | 9.780418e-15 |      --      |    Inf | unknown
 63.8s|   200 |   193 |275581 |1149.3 |    69M |  43 |2596 |2514 |2029 | 225 |  1 | 548 |  11 | 9.780418e-15 |      --      |    Inf | unknown
 time | node  | left  |LP iter|LP it/n|mem/heur|mdpt |vars |cons |rows |cuts |sepa|confs|strbr|  dualbound   | primalbound  |  gap   | compl. 
 84.9s|   300 |   286 |311018 | 883.5 |    72M |  66 |2596 |3310 |2034 | 256 |  1 |1351 |1038 | 9.780418e-15 |      --      |    Inf | unknown
  101s|   400 |   358 |344393 | 745.7 |    74M |  66 |2596 |3726 |2046 | 331 |  3 |1777 |1458 | 9.780418e-15 |      --      |    Inf | unknown
  117s|   500 |   440 |404695 | 717.1 |    77M |  66 |2596 |3701 |2045 | 399 |  2 |1958 |1710 | 9.780418e-15 |      --      |    Inf | unknown
  128s|   600 |   517 |449008 | 671.4 |    78M |  66 |2596 |3858 |2036 | 466 |  1 |2147 |1825 | 9.780418e-15 |      --      |    Inf |   0.60%
  139s|   700 |   576 |501323 | 650.2 |    79M |  66 |2596 |4071 |   0 | 525 |  0 |2435 |1880 | 9.780418e-15 |      --      |    Inf |   0.60%
  157s|   800 |   654 |570934 | 655.9 |    81M |  66 |2596 |4401 |   0 | 587 |  0 |2801 |2138 | 9.780418e-15 |      --      |    Inf |   0.60%
  165s|   900 |   735 |604453 | 620.2 |    82M |  66 |2596 |4634 |2039 | 636 |  1 |3080 |2247 | 9.780418e-15 |      --      |    Inf |   0.60%
  173s|  1000 |   805 |639890 | 593.6 |    82M |  66 |2596 |4766 |   0 | 670 |  0 |3265 |2305 | 9.780418e-15 |      --      |    Inf |   0.60%
  187s|  1100 |   878 |704348 | 598.3 |    83M |  66 |2596 |4862 |2038 | 742 |  1 |3451 |2351 | 9.780418e-15 |      --      |    Inf |   0.60%
  195s|  1200 |   955 |747198 | 584.1 |    83M |  66 |2596 |4996 |2038 | 802 |  1 |3672 |2405 | 9.780418e-15 |      --      |    Inf |   0.60%
  211s|  1300 |  1041 |818986 | 594.4 |    84M |  66 |2596 |5067 |2037 | 845 |  1 |3800 |2501 | 9.780418e-15 |      --      |    Inf |   0.61%
  220s|  1400 |  1122 |860711 | 581.7 |    85M |  66 |2596 |5150 |2041 | 887 |  1 |3944 |2542 | 9.780418e-15 |      --      |    Inf |   0.61%
  229s|  1500 |  1208 |902332 | 570.7 |    86M |  68 |2596 |5184 |2034 | 940 |  1 |4106 |2597 | 9.780418e-15 |      --      |    Inf |   0.61%
  241s|  1600 |  1287 |957135 | 569.3 |    86M |  68 |2596 |5214 |   0 |1016 |  0 |4238 |2656 | 9.780418e-15 |      --      |    Inf |   0.61%
  255s|  1700 |  1362 |  1026k| 576.8 |    87M |  68 |2596 |5197 |2036 |1094 |  1 |4361 |2688 | 9.780418e-15 |      --      |    Inf |   0.61%
 time | node  | left  |LP iter|LP it/n|mem/heur|mdpt |vars |cons |rows |cuts |sepa|confs|strbr|  dualbound   | primalbound  |  gap   | compl. 
  279s|  1800 |  1446 |  1138k| 606.8 |    87M |  68 |2596 |5130 |2042 |1208 |  1 |4506 |2793 | 9.780418e-15 |      --      |    Inf |   0.61%
  290s|  1900 |  1524 |  1190k| 602.3 |    88M |  80 |2596 |5190 |2045 |1252 |  1 |4711 |2914 | 9.780418e-15 |      --      |    Inf |   0.61%
  297s|  2000 |  1591 |  1220k| 587.1 |    88M |  80 |2596 |5270 |   0 |1316 |  0 |4941 |2984 | 9.780418e-15 |      --      |    Inf |   0.61%
  320s|  2100 |  1672 |  1323k| 608.3 |    89M |  80 |2596 |5275 |2049 |1455 |  2 |5175 |3107 | 9.780418e-15 |      --      |    Inf |   0.80%
  330s|  2200 |  1758 |  1353k| 594.1 |    89M |  80 |2596 |5271 |2045 |1501 |  0 |5323 |3359 | 9.780418e-15 |      --      |    Inf |   0.80%
Restart triggered after 50 consecutive estimations that the remaining tree will be large
  336s|  2300 |  1834 |  1373k| 576.9 |    89M |  80 |2596 |5279 |2044 |1561 |  1 |5472 |3447 | 9.780418e-15 |      --      |    Inf |   0.80%
  340s|  2400 |  1912 |  1391k| 560.6 |    90M |  80 |2596 |5283 |2038 |1603 |  1 |5580 |3531 | 9.780418e-15 |      --      |    Inf |   0.80%
d 341s|  2420 |   509 |  1393k| 556.6 |distribu|  80 |2596 |5407 |2040 |   0 |  1 |5705 |3553 | 9.780418e-15 | 2.000000e+00 |    Inf |   4.65%

SCIP Status        : problem is solved [optimal solution found]
Solving Time (sec) : 350.65
Solving Nodes      : 2453
Primal Bound       : +2.00000000000000e+00 (1 solutions)
Dual Bound         : +2.00000000000000e+00
Gap                : 0.00 %
SCIP Status        : problem is solved [optimal solution found]
Total Time         :     350.70
  solving          :     350.65
  presolving       :       0.19 (included in solving)
  reading          :       0.06
  copying          :       1.60 (76 #copies) (minimal 0.01, maximal 0.03, average 0.02)
Original Problem   :
  Problem name     : ns1208400
  Variables        : 2883 (2880 binary, 0 integer, 0 implicit integer, 3 continuous)
  Constraints      : 4289 initial, 4289 maximal
  Objective        : minimize, 3 non-zeros (abs.min = 1, abs.max = 10)
Presolved Problem  :
  Problem name     : t_ns1208400
  Variables        : 2596 (2596 binary, 0 integer, 0 implicit integer, 0 continuous)
  Constraints      : 1981 initial, 5407 maximal
  Objective        : minimize, 72 non-zeros (abs.min = 1, abs.max = 1)
  Nonzeros         : 73620 constraint, 7666 clique table
Presolvers         :   ExecTime  SetupTime  Calls  FixedVars   AggrVars   ChgTypes  ChgBounds   AddHoles    DelCons    AddCons   ChgSides   ChgCoefs
  boundshift       :       0.00       0.00      0          0          0          0          0          0          0          0          0          0
  convertinttobin  :       0.00       0.00      0          0          0          0          0          0          0          0          0          0
  domcol           :       0.01       0.00      1          0          0          0          0          0          0          0          0          0
  dualagg          :       0.00       0.00      0          0          0          0          0          0          0          0          0          0
  dualcomp         :       0.00       0.00      0          0          0          0          0          0          0          0          0          0
  dualinfer        :       0.00       0.00      0          0          0          0          0          0          0          0          0          0
  dualsparsify     :       0.01       0.00      1          0          0          0          0          0          0          0          0          0
  gateextraction   :       0.00       0.00      1          0          0          0          0          0          0          0          0          0
  implics          :       0.00       0.00      2          0          0          0          0          0          0          0          0          0
  inttobinary      :       0.00       0.00      0          0          0          0          0          0          0          0          0          0
  qpkktref         :       0.00       0.00      0          0          0          0          0          0          0          0          0          0
  redvub           :       0.00       0.00      0          0          0          0          0          0          0          0          0          0
  sparsify         :       0.04       0.00      1          0          0          0          0          0          0          0          0          0
  stuffing         :       0.00       0.00      0          0          0          0          0          0          0          0          0          0
  trivial          :       0.00       0.00      4          0          0          0          0          0          0          0          0          0
  tworowbnd        :       0.00       0.00      0          0          0          0          0          0          0          0          0          0
  dualfix          :       0.00       0.00      4          0          0          0          0          0          0          0          0          0
  genvbounds       :       0.00       0.00      0          0          0          0          0          0          0          0          0          0
  probing          :       0.01       0.00      1          0          0          0          0          0          0          0          0          0
  pseudoobj        :       0.00       0.00      1          0          0          0          0          0          0          0          0          0
  symmetry         :       0.00       0.00      0          0          0          0          0          0          0          0          0          0
  vbounds          :       0.00       0.00      1          0          0          0          0          0          0          0          0          0
  knapsack         :       0.03       0.00      3          0          0          0          0          0          0          0          0          0
  setppc           :       0.00       0.00      3          0          0          0          0          0          0          0          0          0
  linear           :       0.05       0.01      6        284          3          0        290          0       2308          0          1          0
  logicor          :       0.01       0.00      3          0          0          0          0          0          0          0          0          0
  benders          :       0.00       0.00      0          0          0          0          0          0          0          0          0          0
  components       :       0.01       0.00      1          0          0          0          0          0          0          0          0          0
  root node        :          -          -      -         93          -          -         93          -          -          -          -          -
Constraints        :     Number  MaxNumber  #Separate #Propagate    #EnfoLP    #EnfoRelax  #EnfoPS    #Check   #ResProp    Cutoffs    DomReds       Cuts    Applied      Conss   Children
  benderslp        :          0          0          0          0       2524          0          0        395          0          0          0          0          0          0          0
  integral         :          0          0          0          0       2524          0          0        395          0          0       1194          0          0       2739       4390
  knapsack         :        397+       448         11      29255          0          0          0        389       7764        141      12883          0          0          0          0
  setppc           :        564+       623         11      29114          0          0          0          2      53860        141      61325          0          0          0          0
  linear           :        528+       599         11      28973          0          0          0          1       1132        267       2950          0          0          0          0
  logicor          :        492+      3769         11      15327          0          0          0          1       1211        129       1433          0          0          0          0
  benders          :          0          0          0          0          0          0          0          2          0          0          0          0          0          0          0
  countsols        :          0          0          0          0          0          0          0          2          0          0          0          0          0          0          0
  components       :          0          0          0          0          0          0          0          0          0          0          0          0          0          0          0
Constraint Timings :  TotalTime  SetupTime   Separate  Propagate     EnfoLP     EnfoPS     EnfoRelax   Check    ResProp    SB-Prop
  benderslp        :       0.00       0.00       0.00       0.00       0.00       0.00       0.00       0.00       0.00       0.00
  integral         :      66.85       0.00       0.00       0.00      66.85       0.00       0.00       0.00       0.00       0.00
  knapsack         :       0.58       0.00       0.03       0.30       0.00       0.00       0.00       0.01       0.01       0.23
  setppc           :       1.12       0.00       0.00       0.55       0.00       0.00       0.00       0.00       0.02       0.54
  linear           :       0.26       0.01       0.00       0.14       0.00       0.00       0.00       0.00       0.01       0.09
  logicor          :       0.45       0.00       0.01       0.30       0.00       0.00       0.00       0.00       0.00       0.14
  benders          :       0.00       0.00       0.00       0.00       0.00       0.00       0.00       0.00       0.00       0.00
  countsols        :       0.00       0.00       0.00       0.00       0.00       0.00       0.00       0.00       0.00       0.00
  components       :       0.00       0.00       0.00       0.00       0.00       0.00       0.00       0.00       0.00       0.00
Propagators        : #Propagate   #ResProp    Cutoffs    DomReds
  dualfix          :          1          0          0          0
  genvbounds       :          0          0          0          0
  nlobbt           :          0          0          0          0
  obbt             :          0          0          0          0
  probing          :          0          0          0          0
  pseudoobj        :      10615         24          2        167
  redcost          :         73          0          0       1091
  rootredcost      :          2          0          0          0
  symmetry         :          0          0          0          0
  vbounds          :      11752          0          0          0
Propagator Timings :  TotalTime  SetupTime   Presolve  Propagate    ResProp    SB-Prop
  dualfix          :       0.00       0.00       0.00       0.00       0.00       0.00
  genvbounds       :       0.01       0.00       0.00       0.00       0.00       0.00
  nlobbt           :       0.00       0.00       0.00       0.00       0.00       0.00
  obbt             :       0.00       0.00       0.00       0.00       0.00       0.00
  probing          :       0.01       0.00       0.01       0.00       0.00       0.00
  pseudoobj        :       0.02       0.00       0.00       0.02       0.00       0.00
  redcost          :       0.02       0.00       0.00       0.02       0.00       0.00
  rootredcost      :       0.01       0.00       0.00       0.00       0.00       0.00
  symmetry         :       0.00       0.00       0.00       0.00       0.00       0.00
  vbounds          :       0.09       0.00       0.00       0.08       0.00       0.01
Conflict Analysis  :       Time      Calls    Success    DomReds  Conflicts   Literals    Reconvs ReconvLits   Dualrays   Nonzeros   LP Iters   (pool size: [10000,10000])
  propagation      :       0.05        624        588          -       5346       49.0         53       43.2          -          -          -
  infeasible LP    :       0.34        283        282          -       4837      123.5         24       43.9        225      120.6          0
  bound exceed. LP :       0.00          3          3          -          6        6.5          0        0.0          3      144.3          0
  strong branching :       0.00          0          0          -          0        0.0          0        0.0          -          -          0
  pseudo solution  :       0.00          0          0          -          0        0.0          0        0.0          -          -          -
  applied globally :       0.09          -          -          0       5522       30.7          -          -        218          -          -
  applied locally  :          -          -          -          0          6       70.7          -          -         10          -          -
Separators         :   ExecTime  SetupTime      Calls  RootCalls    Cutoffs    DomReds  FoundCuts ViaPoolAdd  DirectAdd    Applied ViaPoolApp  DirectApp      Conss
  cut pool         :       0.20          -        826         21          -          -       2520       3097          -          -          -          -          -    (maximal pool size:        597)
  aggregation      :       0.36       0.00        220         11          0          0          3          2          0          1          1          0          0
  > cmir           :          -          -          -          -          -          -          -          1          0          1          1          0          -
  > flowcover      :          -          -          -          -          -          -          -          0          0          0          0          0          -
  > knapsackcover  :          -          -          -          -          -          -          -          1          0          0          0          0          -
  cgmip            :       0.00       0.00          0          0          0          0          0          0          0          0          0          0          0
  clique           :       0.03       0.00         11         11          0          0         65         43          0         42         42          0          0
  closecuts        :       0.00       0.00          0          0          0          0          0          0          0          0          0          0          0
  convexproj       :       0.00       0.00          0          0          0          0          0          0          0          0          0          0          0
  disjunctive      :       0.00       0.00          0          0          0          0          0          0          0          0          0          0          0
  eccuts           :       0.00       0.00          0          0          0          0          0          0          0          0          0          0          0
  gauge            :       0.00       0.00          0          0          0          0          0          0          0          0          0          0          0
  gomory           :       5.98       0.00        207         10          0          0       2080       1764        130        656        646         10          0
  > gomorymi       :          -          -          -          -          -          -          -        540         67        155        150          5          -
  > strongcg       :          -          -          -          -          -          -          -       1224         63        501        496          5          -
  impliedbounds    :       0.02       0.00        220         11          0          0         54        211          0        155        155          0          0
  interminor       :       0.00       0.00          0          0          0          0          0          0          0          0          0          0          0
  intobj           :       0.00       0.00          0          0          0          0          0          0          0          0          0          0          0
  mcf              :       0.00       0.00          1          1          0          0          0          0          0          0          0          0          0
  minor            :       0.00       0.00          0          0          0          0          0          0          0          0          0          0          0
  mixing           :       0.00       0.00          0          0          0          0          0          0          0          0          0          0          0
  oddcycle         :       0.00       0.00          0          0          0          0          0          0          0          0          0          0          0
  rapidlearning    :      12.41       0.00         72          1          0       3178          0          0          0          0          0          0        110
  rlt              :       0.00       0.00         10         10          0          0          0          0          0          0          0          0          0
  zerohalf         :       1.96       0.00        208         11          0          0        545       1077         97        813        728         85          0
Cutselectors       :   ExecTime  SetupTime      Calls  RootCalls   Selected     Forced   Filtered  RootSelec   RootForc   RootFilt 
  hybrid           :       0.00       0.00        408         11       1720          0       1600         98          0         72
Pricers            :   ExecTime  SetupTime      Calls       Vars
  problem variables:       0.00          -          0          0
Branching Rules    :   ExecTime  SetupTime   BranchLP  BranchExt   BranchPS    Cutoffs    DomReds       Cuts      Conss   Children
  allfullstrong    :       0.00       0.00          0          0          0          0          0          0          0          0
  cloud            :       0.00       0.00          0          0          0          0          0          0          0          0
  distribution     :       0.00       0.00          0          0          0          0          0          0          0          0
  fullstrong       :       0.00       0.00          0          0          0          0          0          0          0          0
  inference        :       0.00       0.00          0          0          0          0          0          0          0          0
  leastinf         :       0.00       0.00          0          0          0          0          0          0          0          0
  lookahead        :       0.00       0.00          0          0          0          0          0          0          0          0
  mostinf          :       0.00       0.00          0          0          0          0          0          0          0          0
  multaggr         :       0.00       0.00          0          0          0          0          0          0          0          0
  nodereopt        :       0.00       0.00          0          0          0          0          0          0          0          0
  pscost           :       0.00       0.00          0          0          0          0          0          0          0          0
  random           :       0.00       0.00          0          0          0          0          0          0          0          0
  relpscost        :      66.85       0.00       2524          0          0          0       1194          0       2894       4390
  vanillafullstrong:       0.00       0.00          0          0          0          0          0          0          0          0
Primal Heuristics  :   ExecTime  SetupTime      Calls      Found       Best
  LP solutions     :       0.00          -          -          0          0
  relax solutions  :       0.00          -          -          0          0
  pseudo solutions :       0.00          -          -          0          0
  strong branching :       0.03          -          -          0          0
  actconsdiving    :       0.00       0.00          0          0          0
  adaptivediving   :       1.83       0.00         11          0          0
  alns             :       5.21       0.00          3          0          0
  bound            :       0.00       0.00          0          0          0
  clique           :       0.03       0.00          1          0          0
  coefdiving       :       0.00       0.00          0          0          0
  completesol      :       0.00       0.00          0          0          0
  conflictdiving   :       1.45       0.00          7          0          0
  crossover        :       0.00       0.00          0          0          0
  dins             :       0.00       0.00          0          0          0
  distributiondivin:       1.11       0.00          7          1          1
  dps              :       0.00       0.00          0          0          0
  dualval          :       0.00       0.00          0          0          0
  farkasdiving     :       0.00       0.00          0          0          0
  feaspump         :       8.04       0.00          3          0          0
  fixandinfer      :       0.00       0.00          0          0          0
  fracdiving       :       1.46       0.00          7          0          0
  gins             :       0.00       0.00          0          0          0
  guideddiving     :       0.00       0.00          0          0          0
  indicator        :       0.00       0.00          0          0          0
  intdiving        :       0.00       0.00          0          0          0
  intshifting      :       0.00       0.00          0          0          0
  linesearchdiving :       0.43       0.00          7          0          0
  localbranching   :       0.00       0.00          0          0          0
  locks            :       0.01       0.00          1          0          0
  lpface           :       0.01       0.00          0          0          0
  mpec             :       0.00       0.00          0          0          0
  multistart       :       0.00       0.00          0          0          0
  mutation         :       0.00       0.00          0          0          0
  nlpdiving        :       0.00       0.00          0          0          0
  objpscostdiving  :       2.08       0.00          4          0          0
  octane           :       0.00       0.00          0          0          0
  ofins            :       0.00       0.00          0          0          0
  oneopt           :       0.00       0.00          1          0          0
  padm             :       0.00       0.00          0          0          0
  proximity        :       0.00       0.00          0          0          0
  pscostdiving     :       0.55       0.00          7          0          0
  randrounding     :       0.22       0.00        396          0          0
  rens             :       0.11       0.00          1          0          0
  reoptsols        :       0.00       0.00          0          0          0
  repair           :       0.00       0.00          0          0          0
  rins             :       0.00       0.00          0          0          0
  rootsoldiving    :       2.60       0.00          4          0          0
  rounding         :       0.36       0.00        728          0          0
  shiftandpropagate:       0.02       0.00          1          0          0
  shifting         :       0.50       0.00        330          0          0
  simplerounding   :       0.00       0.00          0          0          0
  subnlp           :       0.00       0.00          0          0          0
  trivial          :       0.00       0.00          2          0          0
  trivialnegation  :       0.00       0.00          0          0          0
  trustregion      :       0.00       0.00          0          0          0
  trysol           :       0.00       0.00          0          0          0
  twoopt           :       0.00       0.00          0          0          0
  undercover       :       0.00       0.00          0          0          0
  vbounds          :       0.03       0.00          1          0          0
  veclendiving     :       0.99       0.00          7          0          0
  zeroobj          :       0.00       0.00          0          0          0
  zirounding       :       0.12       0.00       1000          0          0
  other solutions  :          -          -          -          0          -
LP                 :       Time      Calls Iterations  Iter/call   Iter/sec  Time-0-It Calls-0-It    ItLimit
  primal LP        :      16.46        222          0       0.00       0.00      16.46        222
  dual LP          :     213.30       3121    1349757     438.38    6328.00       0.06         42
  lex dual LP      :       0.00          0          0       0.00          -
  barrier LP       :       0.00          0          0       0.00          -       0.00          0
  resolve instable :       0.00          0          0       0.00          -
  diving/probing LP:      20.23        363      93596     257.84    4626.08
  strong branching :      57.99       3553     552658     155.55    9530.64          -          -        155
    (at root node) :          -         11       5213     473.91          -
  conflict analysis:       0.00          0          0       0.00          -
B&B Tree           :
  number of runs   :          1
  nodes            :       2453 (2195 internal, 258 leaves)
  feasible leaves  :          0
  infeas. leaves   :        252
  objective leaves :          6
  nodes (total)    :       2453 (2195 internal, 258 leaves)
  nodes left       :          0
  max depth        :         80
  max depth (total):         80
  backtracks       :        147 (6.0%)
  early backtracks :          0 (0.0%)
  nodes exc. ref.  :          0 (0.0%)
  delayed cutoffs  :        515
  repropagations   :       2161 (3664 domain reductions, 38 cutoffs)
  avg switch length:       4.95
  switching time   :      17.34
Root Node          :
  First LP value   : +0.00000000000000e+00
  First LP Iters   :        153 (2179.70 Iter/sec)
  First LP Time    :       0.07
  Final Dual Bound : +2.00000000000000e+00
  Final Root Iters :      46866
  Root LP Estimate : +5.76966447962604e-01
Solution           :
  Solutions found  :          1 (1 improvements)
  First Solution   : +2.00000000000000e+00   (in run 1, after 2420 nodes, 340.93 seconds, depth 83, found by <distributiondiving>)
  Gap First Sol.   :   infinite
  Gap Last Sol.    :   infinite
  Primal Bound     : +2.00000000000000e+00   (in run 1, after 2420 nodes, 340.93 seconds, depth 83, found by <distributiondiving>)
  Dual Bound       : +2.00000000000000e+00
  Gap              :       0.00 %
Integrals          :      Total       Avg%
  primal-dual      :   35064.57     100.00
  primal-ref       :          -          - (not evaluated)
  dual-ref         :          -          - (not evaluated)
written solution information to file <results/final_miplib_symretope_if_extended_generating_set_cpx_v802__settings_final_nosym_norestarts__3__ns1208400.mps.gz.sol>
@04 1686663917
